1 185 184 170 168 157 156 112 111 110 109 108 107 104 103 102 105 106 101 100 115 116 113 114 139 140 141 142 155 158 167 166 159 154 143 137 130 131 128 129 127 121 122 117 118 119 120 123 124 125 126 133 132 135 136 144 153 160 161 152 145 151 146 138 134 150 149 147 148 162 178 179 190 191 6 15 14 13 7 8 12 11 10 9 68 69 83 84 82 78 77 74 75 76 79 81 85 86 80 95 96 99 98 97 87 94 93 88 92 89 90 91 72 29 71 28 30 31 32 27 26 70 25 39 35 33 34 37 36 42 41 43 48 49 50 47 44 46 45 38 73 67 66 65 64 52 51 53 63 62 54 61 60 59 58 57 56 55 40 24 21 20 19 18 17 22 23 16 5 4 3 2 194 193 192 177 163 176 175 164 180 195 189 188 196 197 187 182 181 174 173 165 169 172 171 183 186 198
